-1
-1
0
0
1
1
0
AAAA/wAAAAAAAAABAAAAAQAAAAQAAAAAAAAAAAAAAAAECQAAAAIAAAADAAAAZAAAAAAAAABkAAABBQAAAAQBAQEAAAAAAAAAAAAAAAAAZP////8AAACEAAAAAAAAAAQAAAAAAAAAAQAAAAAAAACdAAAAAQAAAAAAAABoAAAAAQAAAAAAAAAAAAAAAQAAAAA=
AAAA/wAAAAAAAAABAAAAAQAAAAQAAAAAAAAAAAAAAAAEDAAAAAIAAAADAAAAAAAAAAIAAAAAAAABCQAAAAQAAQEAAAAAAAAAAAABAAAAZP////8AAACEAAAAAAAAAAMAAAClAAAAAQAAAAMAAABkAAAAAQAAAAAAAAAAAAAAAgAAAAA=
0
1
2
3
0